c FILE /home/rafael/Documents/HappySet/MIHS/inputs/happygen/output/graph_d_regular_k5_p0.2_v100_20241127_084043.txt
c SOURCE This is a d-regular graph formed for the happy graph colouring problem.
c DESCRIPTION It was generated using the problem generator of Rhyd Lewis
c
c GRAPH STATS
c Seed                             = -853563590
c Number of Nodes                  = 100
c Number of colours k              = 5
c Number of pre-assignments        = 20
c Degree of all vertices           = 6
c Density                          = 0.0606061
c 
c The degrees of nodes 1 to 100, respectively, are as follows 
c [6, 6, 6, 6, 6, 6, 6, 6, 6, 6, 6, 6, 6, 6, 6, 6, 6, 6, 6, 6, 6, 6, 6, 6, 6, 6, 
c  6, 6, 6, 6, 6, 6, 6, 6, 6, 6, 6, 6, 6, 6, 6, 6, 6, 6, 6, 6, 6, 6, 6, 6, 6, 
c  6, 6, 6, 6, 6, 6, 6, 6, 6, 6, 6, 6, 6, 6, 6, 6, 6, 6, 6, 6, 6, 6, 6, 6, 6, 
c  6, 6, 6, 6, 6, 6, 6, 6, 6, 6, 6, 6, 6, 6, 6, 6, 6, 6, 6, 6, 6, 6, 6, 6] 
c  
p edge 100 300 5
e 1 2
e 1 24
e 1 56
e 1 62
e 1 75
e 1 84
e 2 13
e 2 15
e 2 36
e 2 55
e 2 92
e 3 27
e 3 60
e 3 74
e 3 78
e 3 83
e 3 95
e 4 8
e 4 18
e 4 34
e 4 41
e 4 61
e 4 95
e 5 19
e 5 40
e 5 41
e 5 53
e 5 54
e 5 94
e 6 12
e 6 28
e 6 36
e 6 47
e 6 49
e 6 82
e 7 10
e 7 31
e 7 32
e 7 42
e 7 45
e 7 65
e 8 38
e 8 63
e 8 76
e 8 94
e 8 95
e 9 10
e 9 27
e 9 44
e 9 52
e 9 69
e 9 70
e 10 39
e 10 49
e 10 50
e 10 75
e 11 24
e 11 42
e 11 51
e 11 70
e 11 85
e 11 87
e 12 23
e 12 24
e 12 59
e 12 62
e 12 77
e 13 39
e 13 43
e 13 85
e 13 97
e 13 98
e 14 32
e 14 61
e 14 68
e 14 73
e 14 85
e 14 91
e 15 21
e 15 33
e 15 37
e 15 57
e 15 92
e 16 28
e 16 56
e 16 67
e 16 73
e 16 79
e 16 90
e 17 35
e 17 44
e 17 48
e 17 69
e 17 81
e 17 97
e 18 26
e 18 53
e 18 54
e 18 81
e 18 95
e 19 29
e 19 43
e 19 63
e 19 77
e 19 89
e 20 29
e 20 30
e 20 60
e 20 68
e 20 79
e 20 81
e 21 33
e 21 47
e 21 84
e 21 88
e 21 93
e 22 25
e 22 35
e 22 86
e 22 87
e 22 94
e 22 96
e 23 26
e 23 46
e 23 57
e 23 68
e 23 94
e 24 34
e 24 51
e 24 100
e 25 31
e 25 43
e 25 75
e 25 82
e 25 95
e 26 27
e 26 31
e 26 88
e 26 99
e 27 41
e 27 45
e 27 50
e 28 32
e 28 34
e 28 42
e 28 83
e 29 38
e 29 84
e 29 86
e 29 97
e 30 45
e 30 47
e 30 66
e 30 70
e 30 100
e 31 43
e 31 87
e 31 99
e 32 62
e 32 74
e 32 99
e 33 64
e 33 67
e 33 76
e 33 83
e 34 46
e 34 65
e 34 78
e 35 52
e 35 55
e 35 72
e 35 75
e 36 37
e 36 66
e 36 78
e 36 93
e 37 61
e 37 69
e 37 82
e 37 84
e 38 53
e 38 58
e 38 63
e 38 72
e 39 42
e 39 65
e 39 88
e 39 91
e 40 66
e 40 77
e 40 87
e 40 89
e 40 91
e 41 68
e 41 92
e 41 96
e 42 50
e 42 67
e 43 49
e 43 86
e 44 51
e 44 70
e 44 86
e 44 92
e 45 83
e 45 90
e 45 93
e 46 49
e 46 69
e 46 89
e 46 98
e 47 71
e 47 80
e 47 98
e 48 52
e 48 63
e 48 73
e 48 77
e 48 83
e 49 60
e 49 71
e 50 59
e 50 86
e 50 91
e 51 64
e 51 81
e 51 90
e 52 64
e 52 97
e 52 98
e 53 57
e 53 68
e 53 82
e 54 72
e 54 78
e 54 90
e 54 94
e 55 67
e 55 73
e 55 85
e 55 92
e 56 72
e 56 85
e 56 88
e 56 100
e 57 65
e 57 96
e 57 97
e 58 80
e 58 81
e 58 91
e 58 93
e 58 99
e 59 61
e 59 62
e 59 90
e 59 98
e 60 66
e 60 80
e 60 97
e 61 72
e 61 82
e 62 89
e 62 93
e 63 70
e 63 76
e 64 78
e 64 82
e 64 87
e 65 66
e 65 74
e 66 99
e 67 74
e 67 90
e 68 84
e 69 70
e 69 71
e 71 75
e 71 80
e 71 95
e 72 86
e 73 84
e 73 98
e 74 76
e 74 99
e 75 96
e 76 83
e 76 89
e 77 88
e 77 100
e 78 96
e 79 80
e 79 81
e 79 89
e 79 96
e 80 88
e 85 91
e 87 93
e 92 100
e 94 100
n 3 2
n 5 2
n 9 1
n 12 2
n 13 1
n 39 1
n 42 1
n 45 1
n 49 3
n 61 5
n 62 2
n 66 3
n 67 1
n 86 4
n 88 1
n 91 1
n 92 5
n 96 2
n 99 3
n 100 5
